sat
(:eliminated-vars              1
 :max-memory                   18.15
 :memory                       18.04
 :nlsat-irrational-assignments 2
 :nlsat-propagations           9
 :nlsat-stages                 4
 :num-allocs                   7007
 :rlimit-count                 3264
 :time                         0.00
 :total-time                   0.01)
